8
0, 557, 591, 792, 323, 603, 151, 366
557, 0, 240, 287, 552, 169, 644, 532
591, 240, 0, 231, 447, 409, 718, 699
792, 287, 231, 0, 679, 408, 903, 819
323, 552, 447, 679, 0, 676, 472, 646
603, 169, 409, 408, 676, 0, 654, 466
151, 644, 718, 903, 472, 654, 0, 299
366, 532, 699, 819, 646, 466, 299, 0
